6

    35     1     6    26    19    24
     3    32     7    21    23    25
    31     9     2    22    27    20
     8    28    33    17    10    15
    30     5    34    12    14    16
     4    36    29    13    18    11
    
    0   1   2   2   3   4
    1   0   1   1   2   3
    2   1   0   2   1   2
    2   1   2   0   1   2
    3   2   1   1   0   1
    4   3   2   2   1   0